Route #1: 115 114 106 107 108 109 120
Route #2: 78 133 68 70 69 112 125 124 123 110 121 122 111 126 127 128 129 113 81
Route #3: 66 71 33 80 67 79 63 64 77 134 76 74 73
Route #4: 72 47 32 34 48 62 52 51 53 54 103 104 56 58 31 30 23
Route #5: 22 24 59 60 61 102 101 100 36 35 99 98 37 95 40 3 41 42 43 44 39 38 96 97 105 57 55 50 49 1 75
Route #6: 82 20 83 85 84 86 87 89 90 16 13 15 88 14 11 12 10 9 8 7 6 5 4 2 45 93 94 29 92 28 27 26 25 21 91
Route #7: 19 65 130 119 117 131 116 132 17 18 118 46
Cost 1167
Time 0.352496
